21513
1 0 1 1 0 0 0 1 1 0 1 0 1 0 1 0 0 1 0 1 0 1 1 1 1 1 1 1 1 1 
7 19 21 27 2 12 21 27 22 28 29 28 10 3 28 7 3 10 22 0 27 21 23 24 10 27 27 19 29 2 19 19 26 21 27 12 8 8 24 21 7 8 12 26 8 19 3 21 19 14 24 24 24 21 8 12 25 8 22 7 29 0 7 8 3 25 23 14 28 25 7 12 19 8 23 23 10 23 8 24 10 0 26 25 29 10 19 2 27 7 28 19 25 25 2 3 28 12 0 28 28 21 25 7 29 0 29 24 22 3 19 29 27 12 12 8 28 7 17 8 26 25 17 19 26 21 2 12 26 17 28 24 25 10 23 8 3 3 28 10 12 22 12 25 25 2 24 21 27 25 24 17 23 0 8 28 2 21 3 3 3 27 10 24 23 27 23 29 3 21 23 8 19 14 26 2 0 10 29 10 2 21 2 19 12 8 28 23 0 21 2 21 19 29 7 12 7 21 10 19 
